param set_len = 30;
param target_sum = 3502128041;
param values := [1] 118977894 [2] 2431944 [3] 71820562 [4] 163700281 [5] 350925742 [6] 359683323 [7] 256947484 [8] 451746162 [9] 120094672 [10] 432169056 [11] 2956658 [12] 505562952 [13] 384515265 [14] 217952181 [15] 326589794 [16] 8107805 [17] 55344968 [18] 424157018 [19] 184951435 [20] 12683004 [21] 360151751 [22] 320575628 [23] 20011338 [24] 314727451 [25] 84963210 [26] 499225442 [27] 398403576 [28] 528844994 [29] 376942153 [30] 474983879 ;
